NAME: random75
TYPE: TSP
DIMENSION: 75
EDGE_WEIGHT_TYPE: EXPLICIT
EDGE_WEIGHT_FORMAT: FULL_MATRIX
EDGE_WEIGHT_SECTION
0 121 121 121 121 121 121 121 121 121 121 121 121 121 121 121 121 121 121 121 121 121 121 121 121 39 121 121 29 121 121 121 121 121 121 121 121 121 121 121 121 121 2 18 121 121 121 121 121 121 121 121 121 121 121 34 121 14 121 121 121 121 121 121 121 121 121 121 121 121 121 121 121 121 121
121 0 121 121 121 121 121 121 121 121 121 121 121 121 121 121 121 121 121 121 121 121 121 121 121 121 121 121 121 1 121 121 121 121 121 121 121 121 121 121 121 121 121 121 121 121 121 121 121 121 121 121 121 121 121 121 121 121 121 121 121 121 121 121 121 121 22 9 121 121 121 121 121 121 121
121 121 0 121 121 13 121 121 121 121 121 121 121 121 121 121 121 121 121 121 121 121 121 121 121 121 13 121 121 121 13 121 121 14 121 121 121 121 121 121 121 121 121 121 121 121 121 121 6 121 121 121 121 121 121 121 121 121 121 15 121 121 121 121 121 121 121 121 8 121 121 121 121 121 121
121 121 121 0 121 121 121 121 121 121 121 121 121 121 121 5 121 121 121 121 121 121 121 121 121 121 121 121 121 121 121 121 121 121 121 121 121 121 121 10 121 121 121 121 121 121 121 121 121 121 121 121 121 121 121 121 12 121 121 121 15 121 12 121 121 121 121 121 121 121 121 121 121 121 121
121 121 121 121 0 121 121 121 121 28 121 121 38 121 121 121 121 121 29 121 121 121 121 121 121 121 121 18 121 121 121 121 121 121 121 121 121 121 121 121 121 20 121 121 35 121 121 121 121 121 121 121 121 121 121 121 121 121 121 121 121 121 29 121 121 121 121 121 121 121 121 121 121 121 121
121 121 13 121 121 0 121 121 121 121 121 121 121 13 121 121 121 121 121 121 121 121 121 121 121 121 121 121 121 121 5 121 121 121 121 121 121 121 121 121 121 121 121 121 121 8 121 121 121 121 121 121 121 121 121 121 121 121 121 121 121 121 121 121 121 121 121 121 13 121 121 10 121 121 121
121 121 121 121 121 121 0 121 121 121 121 121 121 121 121 121 121 121 121 6 121 121 121 121 121 121 121 121 121 121 121 121 14 121 121 121 121 121 121 121 121 121 121 121 121 121 121 121 121 121 121 121 121 121 121 121 121 121 121 121 121 121 121 121 121 121 8 121 121 121 121 121 121 121 4
121 121 121 121 121 121 121 0 121 121 121 3 121 121 121 121 121 20 121 121 121 121 121 121 121 121 121 121 16 121 121 121 121 121 121 121 121 121 121 121 121 121 121 121 121 121 13 16 121 121 121 121 121 121 121 121 121 121 121 121 121 121 121 121 121 121 121 121 121 121 121 121 121 121 121
121 121 121 121 121 121 121 121 0 121 121 121 121 121 121 121 121 121 121 121 121 121 121 121 121 8 121 121 6 121 121 121 121 121 121 121 121 121 121 121 121 121 121 121 121 121 121 6 121 121 121 121 121 121 121 121 121 121 121 121 121 121 121 121 121 121 121 121 121 121 121 121 121 121 121
121 121 121 121 28 121 121 121 121 0 121 121 121 121 121 6 121 121 18 121 121 121 121 121 121 121 121 121 121 121 121 121 121 121 121 121 121 121 121 6 121 121 121 121 121 121 121 121 121 121 121 121 121 121 121 121 121 121 121 121 121 121 14 121 121 121 121 121 121 121 121 121 121 121 121
121 121 121 121 121 121 121 121 121 121 0 121 121 121 8 121 121 121 121 121 121 16 121 121 17 121 121 121 121 121 121 121 121 121 121 121 121 121 121 121 121 121 121 121 121 121 121 121 121 121 121 121 121 121 121 17 121 121 121 121 121 11 121 121 121 121 59 121 121 121 121 121 121 121 121
121 121 121 121 121 121 121 3 121 121 121 0 121 121 121 121 121 19 121 121 121 121 121 121 121 121 121 121 121 121 121 121 121 121 121 121 121 121 11 121 121 121 121 121 121 121 14 121 121 121 121 121 121 14 121 121 121 121 121 121 121 121 121 121 121 121 121 121 121 121 121 121 121 8 121
121 121 121 121 38 121 121 121 121 121 121 121 0 121 121 121 121 121 121 121 121 121 121 121 121 121 121 121 121 14 121 121 121 121 121 121 121 121 121 121 121 121 121 121 3 121 121 121 121 121 121 121 121 121 121 121 121 121 121 121 121 121 121 121 121 121 121 17 121 121 121 121 121 121 121
121 121 121 121 121 13 121 121 121 121 121 121 121 0 121 121 6 121 121 121 121 121 121 121 121 121 121 121 121 121 121 121 121 121 10 121 121 121 121 121 121 121 121 121 121 121 121 121 121 121 121 121 121 121 121 121 121 121 121 121 121 121 121 121 121 121 121 16 11 121 121 19 121 121 12
121 121 121 121 121 121 121 121 121 121 8 121 121 121 0 121 121 121 121 121 121 121 121 121 121 121 121 121 121 121 121 121 121 121 121 121 121 121 121 121 121 121 121 121 121 121 121 121 121 121 121 121 121 121 121 9 121 121 121 121 121 4 121 121 121 121 121 121 121 121 121 121 121 121 121
121 121 121 5 121 121 121 121 121 6 121 121 121 121 121 0 121 121 121 121 121 121 121 121 121 121 121 121 121 121 121 121 121 121 121 121 121 121 121 9 121 121 121 121 121 121 121 121 121 121 121 121 121 121 121 121 121 121 121 121 121 121 10 121 121 121 121 121 121 121 121 121 121 121 121
121 121 121 121 121 121 121 121 121 121 121 121 121 6 121 121 0 121 121 121 121 121 121 121 121 121 13 121 121 121 121 121 121 121 6 121 121 121 121 121 121 121 121 121 121 121 121 121 121 121 121 121 17 121 121 121 121 121 121 121 121 121 121 121 121 121 121 121 121 121 121 121 121 121 10
121 121 121 121 121 121 121 20 121 121 121 19 121 121 121 121 121 0 121 121 47 121 121 121 121 121 121 121 121 121 121 121 121 121 121 121 121 121 11 121 121 121 121 121 121 121 121 23 121 28 121 121 121 121 121 121 121 121 121 121 28 121 121 121 121 121 121 121 121 121 121 121 121 121 121
121 121 121 121 29 121 121 121 121 18 121 121 121 121 121 121 121 121 0 121 13 121 121 121 121 121 121 121 121 121 121 121 121 121 121 121 121 121 121 18 121 121 121 121 121 121 121 121 121 121 121 121 121 121 121 121 121 121 121 121 121 121 121 121 121 121 121 121 121 121 121 121 121 121 121
121 121 121 121 121 121 6 121 121 121 121 121 121 121 121 121 121 121 121 0 121 121 121 121 121 121 121 121 121 121 121 121 121 121 121 121 121 121 121 121 121 121 121 121 121 121 121 121 121 121 121 121 121 121 121 121 121 121 121 121 121 121 121 121 121 121 3 16 121 121 121 121 121 121 9
121 121 121 121 121 121 121 121 121 121 121 121 121 121 121 121 121 47 13 121 0 121 121 121 121 121 121 121 121 121 121 121 121 121 121 121 121 121 121 12 121 121 121 121 121 121 121 121 121 121 121 121 121 121 121 121 121 121 121 121 19 121 121 121 121 121 121 121 121 121 121 121 121 121 121
121 121 121 121 121 121 121 121 121 121 16 121 121 121 121 121 121 121 121 121 121 0 121 121 11 121 121 121 121 121 121 121 121 121 121 121 121 18 121 121 121 121 121 121 121 121 121 121 121 121 121 121 121 121 121 121 121 121 5 121 121 19 121 121 18 121 121 121 121 121 121 121 121 121 121
121 121 121 121 121 121 121 121 121 121 121 121 121 121 121 121 121 121 121 121 121 121 0 121 11 121 121 121 121 121 121 121 121 121 121 121 121 121 121 121 121 121 121 121 121 121 121 121 121 121 121 121 10 121 121 121 121 121 121 121 121 121 121 121 121 121 121 121 121 4 4 121 121 121 121
121 121 121 121 121 121 121 121 121 121 121 121 121 121 121 121 121 121 121 121 121 121 121 0 121 121 121 121 16 121 121 121 121 121 121 121 121 121 121 121 121 121 121 3 121 121 8 121 121 121 121 121 121 121 121 121 121 121 121 121 121 121 121 121 121 121 121 121 121 121 121 121 121 121 121
121 121 121 121 121 121 121 121 121 121 17 121 121 121 121 121 121 121 121 121 121 11 11 121 0 121 121 121 121 121 121 121 121 121 121 121 121 121 121 121 121 121 121 121 121 121 121 121 121 121 121 121 121 121 121 121 121 121 12 121 121 121 121 121 121 121 42 121 121 11 12 121 121 121 121
39 121 121 121 121 121 121 121 8 121 121 121 121 121 121 121 121 121 121 121 121 121 121 121 121 0 121 121 14 121 121 121 121 121 121 121 121 121 121 121 121 121 121 121 121 121 121 10 121 121 121 121 121 121 6 73 121 121 121 121 121 121 121 121 121 121 121 121 121 121 121 121 121 121 121
121 121 13 121 121 121 121 121 121 121 121 121 121 121 121 121 13 121 121 121 121 121 121 121 121 121 0 121 121 121 121 121 121 2 10 121 121 121 121 121 121 121 121 121 121 121 121 121 121 121 121 121 10 121 121 121 121 121 121 121 121 121 121 121 121 121 121 121 10 121 121 121 121 121 121
121 121 121 121 18 121 121 121 121 121 121 121 121 121 121 121 121 121 121 121 121 121 121 121 121 121 121 0 121 121 121 6 121 121 121 121 121 121 121 121 121 7 121 121 121 121 121 121 121 121 121 121 121 121 121 121 121 121 121 121 121 121 21 121 121 121 121 121 121 121 121 121 121 121 121
29 121 121 121 121 121 121 16 6 121 121 121 121 121 121 121 121 121 121 121 121 121 121 16 121 14 121 121 0 121 121 121 121 121 121 121 121 121 121 121 121 121 121 18 121 121 17 11 121 121 121 121 121 121 121 121 121 121 121 121 121 121 121 121 121 121 121 121 121 121 121 121 121 121 121
121 1 121 121 121 121 121 121 121 121 121 121 14 121 121 121 121 121 121 121 121 121 121 121 121 121 121 121 121 0 121 121 121 121 121 121 121 121 121 121 121 121 121 121 121 121 121 121 121 121 121 121 121 121 121 121 121 121 121 121 121 121 121 121 121 121 121 10 121 121 121 121 121 121 121
121 121 13 121 121 5 121 121 121 121 121 121 121 121 121 121 121 121 121 121 121 121 121 121 121 121 121 121 121 121 0 121 121 121 121 121 121 121 121 121 121 121 121 121 121 4 121 121 121 121 121 121 121 121 121 121 121 121 121 5 121 121 121 121 121 121 121 121 121 121 121 121 121 121 121
121 121 121 121 121 121 121 121 121 121 121 121 121 121 121 121 121 121 121 121 121 121 121 121 121 121 121 6 121 121 121 0 121 121 121 121 121 121 121 121 121 8 121 121 121 10 121 121 121 121 121 121 121 121 121 121 121 121 121 11 121 121 21 121 121 121 121 121 121 121 121 11 121 121 121
121 121 121 121 121 121 14 121 121 121 121 121 121 121 121 121 121 121 121 121 121 121 121 121 121 121 121 121 121 121 121 121 0 121 121 121 121 121 121 121 121 121 121 121 121 121 121 121 121 121 121 121 6 121 121 121 121 121 121 121 121 121 121 121 121 121 21 121 121 11 121 121 121 121 15
121 121 14 121 121 121 121 121 121 121 121 121 121 121 121 121 121 121 121 121 121 121 121 121 121 121 2 121 121 121 121 121 121 0 121 121 121 121 121 121 121 121 121 121 121 121 121 121 15 121 121 22 10 121 121 121 121 121 19 121 121 121 121 121 121 121 121 121 121 121 13 121 121 121 121
121 121 121 121 121 121 121 121 121 121 121 121 121 10 121 121 6 121 121 121 121 121 121 121 121 121 10 121 121 121 121 121 121 121 0 121 121 121 121 121 121 121 121 121 121 121 121 121 121 121 121 121 121 121 121 121 121 121 121 121 121 121 121 121 121 121 121 121 2 121 121 121 121 121 121
121 121 121 121 121 121 121 121 121 121 121 121 121 121 121 121 121 121 121 121 121 121 121 121 121 121 121 121 121 121 121 121 121 121 121 0 6 121 121 121 121 121 121 121 121 121 121 121 121 121 6 121 121 22 121 121 25 121 121 17 121 121 24 121 121 121 121 121 121 121 121 121 121 121 121
121 121 121 121 121 121 121 121 121 121 121 121 121 121 121 121 121 121 121 121 121 121 121 121 121 121 121 121 121 121 121 121 121 121 121 6 0 121 121 121 18 121 121 121 121 121 21 121 121 121 10 19 121 21 121 121 121 121 121 121 121 121 121 121 121 121 121 121 121 121 121 121 121 121 121
121 121 121 121 121 121 121 121 121 121 121 121 121 121 121 121 121 121 121 121 121 18 121 121 121 121 121 121 121 121 121 121 121 121 121 121 121 0 121 121 121 121 121 121 121 121 121 121 121 121 121 121 121 121 121 16 121 8 121 121 121 13 121 121 10 121 121 121 121 121 121 121 121 121 121
121 121 121 121 121 121 121 121 121 121 121 11 121 121 121 121 121 11 121 121 121 121 121 121 121 121 121 121 121 121 121 121 121 121 121 121 121 121 0 121 121 121 121 121 121 121 121 121 121 121 121 121 121 121 121 121 18 121 121 121 24 121 121 12 121 121 121 121 121 121 121 121 121 8 121
121 121 121 10 121 121 121 121 121 6 121 121 121 121 121 9 121 121 18 121 12 121 121 121 121 121 121 121 121 121 121 121 121 121 121 121 121 121 121 0 121 121 121 121 121 121 121 121 121 121 121 121 121 121 121 121 121 121 121 121 16 121 121 121 121 121 121 121 121 121 121 121 121 121 121
121 121 121 121 121 121 121 121 121 121 121 121 121 121 121 121 121 121 121 121 121 121 121 121 121 121 121 121 121 121 121 121 121 121 121 121 18 121 121 121 0 121 20 18 121 121 23 121 121 121 121 7 121 121 121 121 121 121 121 121 121 121 121 121 121 121 121 121 121 121 121 121 16 121 121
121 121 121 121 20 121 121 121 121 121 121 121 121 121 121 121 121 121 121 121 121 121 121 121 121 121 121 7 121 121 121 8 121 121 121 121 121 121 121 121 121 0 121 121 25 121 121 121 121 121 121 121 121 121 121 121 121 121 121 121 121 121 121 121 121 6 121 121 121 121 121 8 121 121 121
2 121 121 121 121 121 121 121 121 121 121 121 121 121 121 121 121 121 121 121 121 121 121 121 121 121 121 121 121 121 121 121 121 121 121 121 121 121 121 121 20 121 0 18 121 121 121 121 121 121 121 121 121 121 121 121 121 13 121 121 121 121 121 121 121 121 121 121 121 121 121 121 16 121 121
18 121 121 121 121 121 121 121 121 121 121 121 121 121 121 121 121 121 121 121 121 121 121 3 121 121 121 121 18 121 121 121 121 121 121 121 121 121 121 121 18 121 18 0 121 121 10 121 121 121 121 121 121 121 121 121 121 121 121 121 121 121 121 121 121 121 121 121 121 121 121 121 121 121 121
121 121 121 121 35 121 121 121 121 121 121 121 3 121 121 121 121 121 121 121 121 121 121 121 121 121 121 121 121 121 121 121 121 121 121 121 121 121 121 121 121 25 121 121 0 121 121 121 121 121 121 121 121 121 121 121 121 121 121 121 121 121 121 121 121 22 121 17 121 121 121 121 121 121 121
121 121 121 121 121 8 121 121 121 121 121 121 121 121 121 121 121 121 121 121 121 121 121 121 121 121 121 121 121 121 4 10 121 121 121 121 121 121 121 121 121 121 121 121 121 0 121 121 121 121 121 121 121 121 121 121 121 121 121 3 121 121 121 121 121 121 121 121 121 121 121 11 121 121 121
121 121 121 121 121 121 121 13 121 121 121 14 121 121 121 121 121 121 121 121 121 121 121 8 121 121 121 121 17 121 121 121 121 121 121 121 21 121 121 121 23 121 121 10 121 121 0 121 121 121 121 121 121 19 121 121 121 121 121 121 121 121 121 121 121 121 121 121 121 121 121 121 121 121 121
121 121 121 121 121 121 121 16 6 121 121 121 121 121 121 121 121 23 121 121 121 121 121 121 121 10 121 121 11 121 121 121 121 121 121 121 121 121 121 121 121 121 121 121 121 121 121 0 121 12 121 121 121 121 11 121 121 121 121 121 121 121 121 121 121 121 121 121 121 121 121 121 121 121 121
121 121 6 121 121 121 121 121 121 121 121 121 121 121 121 121 121 121 121 121 121 121 121 121 121 121 121 121 121 121 121 121 121 15 121 121 121 121 121 121 121 121 121 121 121 121 121 121 0 121 12 16 121 121 121 121 121 121 121 17 121 121 121 121 121 121 121 121 121 121 121 121 121 121 121
121 121 121 121 121 121 121 121 121 121 121 121 121 121 121 121 121 28 121 121 121 121 121 121 121 121 121 121 121 121 121 121 121 121 121 121 121 121 121 121 121 121 121 121 121 121 121 12 121 0 121 121 121 121 2 121 121 121 121 121 121 121 121 121 121 121 121 121 121 121 121 121 121 121 121
121 121 121 121 121 121 121 121 121 121 121 121 121 121 121 121 121 121 121 121 121 121 121 121 121 121 121 121 121 121 121 121 121 121 121 6 10 121 121 121 121 121 121 121 121 121 121 121 12 121 0 20 121 121 121 121 121 121 121 13 121 121 121 121 121 121 121 121 121 121 121 121 121 121 121
121 121 121 121 121 121 121 121 121 121 121 121 121 121 121 121 121 121 121 121 121 121 121 121 121 121 121 121 121 121 121 121 121 22 121 121 19 121 121 121 7 121 121 121 121 121 121 121 16 121 20 0 121 121 121 121 121 121 22 121 121 121 121 121 16 121 121 121 121 121 121 121 16 121 121
121 121 121 121 121 121 121 121 121 121 121 121 121 121 121 121 17 121 121 121 121 121 10 121 121 121 10 121 121 121 121 121 6 10 121 121 121 121 121 121 121 121 121 121 121 121 121 121 121 121 121 121 0 121 121 121 121 121 121 121 121 121 121 121 121 121 121 121 121 11 12 121 121 121 17
121 121 121 121 121 121 121 121 121 121 121 14 121 121 121 121 121 121 121 121 121 121 121 121 121 121 121 121 121 121 121 121 121 121 121 22 21 121 121 121 121 121 121 121 121 121 19 121 121 121 121 121 121 0 121 121 9 121 121 121 121 121 121 3 121 121 121 121 121 121 121 121 121 8 121
121 121 121 121 121 121 121 121 121 121 121 121 121 121 121 121 121 121 121 121 121 121 121 121 121 6 121 121 121 121 121 121 121 121 121 121 121 121 121 121 121 121 121 121 121 121 121 11 121 2 121 121 121 121 0 78 121 121 121 121 121 121 121 121 121 121 121 121 121 121 121 121 121 121 121
34 121 121 121 121 121 121 121 121 121 17 121 121 121 9 121 121 121 121 121 121 121 121 121 121 73 121 121 121 121 121 121 121 121 121 121 121 16 121 121 121 121 121 121 121 121 121 121 121 121 121 121 121 121 78 0 121 21 121 121 121 8 121 121 121 121 121 121 121 121 121 121 121 121 121
121 121 121 12 121 121 121 121 121 121 121 121 121 121 121 121 121 121 121 121 121 121 121 121 121 121 121 121 121 121 121 121 121 121 121 25 121 121 18 121 121 121 121 121 121 121 121 121 121 121 121 121 121 9 121 121 0 121 121 121 19 121 17 9 121 121 121 121 121 121 121 121 121 121 121
14 121 121 121 121 121 121 121 121 121 121 121 121 121 121 121 121 121 121 121 121 121 121 121 121 121 121 121 121 121 121 121 121 121 121 121 121 8 121 121 121 121 13 121 121 121 121 121 121 121 121 121 121 121 121 21 121 0 121 121 121 121 121 121 11 121 121 121 121 121 121 121 10 121 121
121 121 121 121 121 121 121 121 121 121 121 121 121 121 121 121 121 121 121 121 121 5 121 121 12 121 121 121 121 121 121 121 121 19 121 121 121 121 121 121 121 121 121 121 121 121 121 121 121 121 121 22 121 121 121 121 121 121 0 121 121 121 121 121 17 121 121 121 121 121 9 121 121 121 121
121 121 15 121 121 121 121 121 121 121 121 121 121 121 121 121 121 121 121 121 121 121 121 121 121 121 121 121 121 121 5 11 121 121 121 17 121 121 121 121 121 121 121 121 121 3 121 121 17 121 13 121 121 121 121 121 121 121 121 0 121 121 25 121 121 121 121 121 121 121 121 121 121 121 121
121 121 121 15 121 121 121 121 121 121 121 121 121 121 121 121 121 28 121 121 19 121 121 121 121 121 121 121 121 121 121 121 121 121 121 121 121 121 24 16 121 121 121 121 121 121 121 121 121 121 121 121 121 121 121 121 19 121 121 121 0 121 121 121 121 121 121 121 121 121 121 121 121 121 121
121 121 121 121 121 121 121 121 121 121 11 121 121 121 4 121 121 121 121 121 121 19 121 121 121 121 121 121 121 121 121 121 121 121 121 121 121 13 121 121 121 121 121 121 121 121 121 121 121 121 121 121 121 121 121 8 121 121 121 121 121 0 121 121 121 121 121 121 121 121 121 121 121 121 121
121 121 121 12 29 121 121 121 121 14 121 121 121 121 121 10 121 121 121 121 121 121 121 121 121 121 121 21 121 121 121 21 121 121 121 24 121 121 121 121 121 121 121 121 121 121 121 121 121 121 121 121 121 121 121 121 17 121 121 25 121 121 0 121 121 121 121 121 121 121 121 121 121 121 121
121 121 121 121 121 121 121 121 121 121 121 121 121 121 121 121 121 121 121 121 121 121 121 121 121 121 121 121 121 121 121 121 121 121 121 121 121 121 12 121 121 121 121 121 121 121 121 121 121 121 121 121 121 3 121 121 9 121 121 121 121 121 121 0 121 121 121 121 121 121 121 121 121 6 121
121 121 121 121 121 121 121 121 121 121 121 121 121 121 121 121 121 121 121 121 121 18 121 121 121 121 121 121 121 121 121 121 121 121 121 121 121 10 121 121 121 121 121 121 121 121 121 121 121 121 121 16 121 121 121 121 121 11 17 121 121 121 121 121 0 121 121 121 121 121 121 121 2 121 121
121 121 121 121 121 121 121 121 121 121 121 121 121 121 121 121 121 121 121 121 121 121 121 121 121 121 121 121 121 121 121 121 121 121 121 121 121 121 121 121 121 6 121 121 22 121 121 121 121 121 121 121 121 121 121 121 121 121 121 121 121 121 121 121 121 0 121 26 121 121 121 3 121 121 121
121 22 121 121 121 121 8 121 121 121 59 121 121 121 121 121 121 121 121 3 121 121 121 121 42 121 121 121 121 121 121 121 21 121 121 121 121 121 121 121 121 121 121 121 121 121 121 121 121 121 121 121 121 121 121 121 121 121 121 121 121 121 121 121 121 121 0 18 121 32 121 121 121 121 121
121 9 121 121 121 121 121 121 121 121 121 121 17 16 121 121 121 121 121 16 121 121 121 121 121 121 121 121 121 10 121 121 121 121 121 121 121 121 121 121 121 121 121 121 17 121 121 121 121 121 121 121 121 121 121 121 121 121 121 121 121 121 121 121 121 26 18 0 121 121 121 26 121 121 18
121 121 8 121 121 13 121 121 121 121 121 121 121 11 121 121 121 121 121 121 121 121 121 121 121 121 10 121 121 121 121 121 121 121 2 121 121 121 121 121 121 121 121 121 121 121 121 121 121 121 121 121 121 121 121 121 121 121 121 121 121 121 121 121 121 121 121 121 0 121 121 121 121 121 121
121 121 121 121 121 121 121 121 121 121 121 121 121 121 121 121 121 121 121 121 121 121 4 121 11 121 121 121 121 121 121 121 11 121 121 121 121 121 121 121 121 121 121 121 121 121 121 121 121 121 121 121 11 121 121 121 121 121 121 121 121 121 121 121 121 121 32 121 121 0 121 121 121 121 121
121 121 121 121 121 121 121 121 121 121 121 121 121 121 121 121 121 121 121 121 121 121 4 121 12 121 121 121 121 121 121 121 121 13 121 121 121 121 121 121 121 121 121 121 121 121 121 121 121 121 121 121 12 121 121 121 121 121 9 121 121 121 121 121 121 121 121 121 121 121 0 121 121 121 121
121 121 121 121 121 10 121 121 121 121 121 121 121 19 121 121 121 121 121 121 121 121 121 121 121 121 121 121 121 121 121 11 121 121 121 121 121 121 121 121 121 8 121 121 121 11 121 121 121 121 121 121 121 121 121 121 121 121 121 121 121 121 121 121 121 3 121 26 121 121 121 0 121 121 121
121 121 121 121 121 121 121 121 121 121 121 121 121 121 121 121 121 121 121 121 121 121 121 121 121 121 121 121 121 121 121 121 121 121 121 121 121 121 121 121 16 121 16 121 121 121 121 121 121 121 121 16 121 121 121 121 121 10 121 121 121 121 121 121 2 121 121 121 121 121 121 121 0 121 121
121 121 121 121 121 121 121 121 121 121 121 8 121 121 121 121 121 121 121 121 121 121 121 121 121 121 121 121 121 121 121 121 121 121 121 121 121 121 8 121 121 121 121 121 121 121 121 121 121 121 121 121 121 8 121 121 121 121 121 121 121 121 121 6 121 121 121 121 121 121 121 121 121 0 121
121 121 121 121 121 121 4 121 121 121 121 121 121 12 121 121 10 121 121 9 121 121 121 121 121 121 121 121 121 121 121 121 15 121 121 121 121 121 121 121 121 121 121 121 121 121 121 121 121 121 121 121 17 121 121 121 121 121 121 121 121 121 121 121 121 121 121 18 121 121 121 121 121 121 0
EOF
